<?xml version="1.0"?>
<VTKFile type="UnstructuredGrid"  version="0.1"  >
<UnstructuredGrid>
<Piece  NumberOfPoints="8" NumberOfCells="6">
<Points>
<DataArray  type="Float64"  NumberOfComponents="3"  format="ascii">0 0 0  1 0 0  0 1 0  1 1 0  0 0 1  1 0 1  0 1 1  1 1 1  </DataArray>
</Points>
<Cells>
<DataArray  type="UInt32"  Name="connectivity"  format="ascii">0 1 3 7  0 1 5 7  0 4 5 7  0 2 3 7  0 4 6 7  0 2 6 7  </DataArray>
<DataArray  type="UInt32"  Name="offsets"  format="ascii">4 8 12 16 20 24 </DataArray>
<DataArray  type="UInt8"  Name="types"  format="ascii">10 10 10 10 10 10 </DataArray>
</Cells>
<PointData  Scalars="active_stress"> 
<DataArray  type="Float64"  Name="active_stress"  format="ascii">5.1174574027323279e+03  5.1174574027223625e+03  5.1174574027273175e+03  5.1174574027300087e+03  5.1174574027284380e+03  5.1174574027287963e+03  5.1174574027279041e+03  5.1174574027292047e+03  </DataArray> 
</PointData> 
</Piece>
</UnstructuredGrid>
</VTKFile>