<?xml version="1.0"?>
<VTKFile type="UnstructuredGrid"  version="0.1"  >
<UnstructuredGrid>
<Piece  NumberOfPoints="8" NumberOfCells="6">
<Points>
<DataArray  type="Float64"  NumberOfComponents="3"  format="ascii">0 0 0  1 0 0  0 1 0  1 1 0  0 0 1  1 0 1  0 1 1  1 1 1  </DataArray>
</Points>
<Cells>
<DataArray  type="UInt32"  Name="connectivity"  format="ascii">0 1 3 7  0 1 5 7  0 4 5 7  0 2 3 7  0 4 6 7  0 2 6 7  </DataArray>
<DataArray  type="UInt32"  Name="offsets"  format="ascii">4 8 12 16 20 24 </DataArray>
<DataArray  type="UInt8"  Name="types"  format="ascii">10 10 10 10 10 10 </DataArray>
</Cells>
<PointData  Scalars="active_stress"> 
<DataArray  type="Float64"  Name="active_stress"  format="ascii">3.2103491098247896e+03  3.2062360953417397e+03  3.2037048952947098e+03  3.2012188683032405e+03  3.2068628215623385e+03  3.2082197449680993e+03  3.2059230820771140e+03  3.2061857745581501e+03  </DataArray> 
</PointData> 
</Piece>
</UnstructuredGrid>
</VTKFile>